Minimize
 obj: + 233.9 x_user1_load0_hour0 + 223.7 x_user1_load0_hour1 
 + 209.3 x_user1_load0_hour2 + 207.1 x_user1_load0_hour3 
 + 196.8 x_user1_load0_hour4 + 184.7 x_user1_load0_hour5 
 + 168.5 x_user1_load0_hour6 + 162.2 x_user1_load0_hour7 
 + 158.1 x_user1_load0_hour8 + 147.9 x_user1_load0_hour9 
 + 141.5 x_user1_load0_hour10 + 272.9 x_user1_load1_hour0 
 + 254 x_user1_load1_hour1 + 245.2 x_user1_load1_hour2 
 + 239.3 x_user1_load1_hour3 + 229.6 x_user1_load1_hour4 
 + 209 x_user1_load1_hour5 + 194.1 x_user1_load1_hour6 
 + 190.4 x_user1_load1_hour7 + 180.8 x_user1_load1_hour8 
 + 171.9 x_user1_load1_hour9 + 163.1 x_user1_load1_hour10 
 + 299.1 x_user1_load2_hour0 + 295 x_user1_load2_hour1 
 + 275.3 x_user1_load2_hour2 + 273.2 x_user1_load2_hour3 
 + 249.9 x_user1_load2_hour4 + 237.5 x_user1_load2_hour5 
 + 224.4 x_user1_load2_hour6 + 210.1 x_user1_load2_hour7 
 + 206.7 x_user1_load2_hour8 + 192.6 x_user1_load2_hour9 
 + 182.9 x_user1_load2_hour10 + 154.4 x_user1_load3_hour0 
 + 149.3 x_user1_load3_hour1 + 139 x_user1_load3_hour2 
 + 137.9 x_user1_load3_hour3 + 129.7 x_user1_load3_hour4 
 + 122.6 x_user1_load3_hour5 + 112.5 x_user1_load3_hour6 
 + 107.3 x_user1_load3_hour7 + 105.2 x_user1_load3_hour8 
 + 98.1 x_user1_load3_hour9 + 93.8 x_user1_load3_hour10 
 + 119 x_user1_load4_hour0 + 109.3 x_user1_load4_hour1 
 + 105.7 x_user1_load4_hour2 + 103 x_user1_load4_hour3 
 + 100.4 x_user1_load4_hour4 + 90.9 x_user1_load4_hour5 
 + 83.2 x_user1_load4_hour6 + 82.6 x_user1_load4_hour7 
 + 78.1 x_user1_load4_hour8 + 74.4 x_user1_load4_hour9 
 + 70.8 x_user1_load4_hour10 + 66.1 x_user1_load4_hour11 
 + 159.5 x_user1_load5_hour0 + 153.4 x_user1_load5_hour1 
 + 140.1 x_user1_load5_hour2 + 140 x_user1_load5_hour3 
 + 134.7 x_user1_load5_hour4 + 128.7 x_user1_load5_hour5 
 + 113.6 x_user1_load5_hour6 + 109.3 x_user1_load5_hour7 
 + 108.3 x_user1_load5_hour8 + 100.2 x_user1_load5_hour9 
 + 96.9 x_user1_load5_hour10 + 90.8 x_user1_load5_hour11 

Subject To 
 load_load0_scheduled: + 1 x_user1_load0_hour0 + 1 x_user1_load0_hour1 
 + 1 x_user1_load0_hour2 + 1 x_user1_load0_hour3 + 1 x_user1_load0_hour4 
 + 1 x_user1_load0_hour5 + 1 x_user1_load0_hour6 + 1 x_user1_load0_hour7 
 + 1 x_user1_load0_hour8 + 1 x_user1_load0_hour9 + 1 x_user1_load0_hour10 
  = 1.0
 load_load1_scheduled: + 1 x_user1_load1_hour0 + 1 x_user1_load1_hour1 
 + 1 x_user1_load1_hour2 + 1 x_user1_load1_hour3 + 1 x_user1_load1_hour4 
 + 1 x_user1_load1_hour5 + 1 x_user1_load1_hour6 + 1 x_user1_load1_hour7 
 + 1 x_user1_load1_hour8 + 1 x_user1_load1_hour9 + 1 x_user1_load1_hour10 
  = 1.0
 load_load2_scheduled: + 1 x_user1_load2_hour0 + 1 x_user1_load2_hour1 
 + 1 x_user1_load2_hour2 + 1 x_user1_load2_hour3 + 1 x_user1_load2_hour4 
 + 1 x_user1_load2_hour5 + 1 x_user1_load2_hour6 + 1 x_user1_load2_hour7 
 + 1 x_user1_load2_hour8 + 1 x_user1_load2_hour9 + 1 x_user1_load2_hour10 
  = 1.0
 load_load3_scheduled: + 1 x_user1_load3_hour0 + 1 x_user1_load3_hour1 
 + 1 x_user1_load3_hour2 + 1 x_user1_load3_hour3 + 1 x_user1_load3_hour4 
 + 1 x_user1_load3_hour5 + 1 x_user1_load3_hour6 + 1 x_user1_load3_hour7 
 + 1 x_user1_load3_hour8 + 1 x_user1_load3_hour9 + 1 x_user1_load3_hour10 
  = 1.0
 load_load4_scheduled: + 1 x_user1_load4_hour0 + 1 x_user1_load4_hour1 
 + 1 x_user1_load4_hour2 + 1 x_user1_load4_hour3 + 1 x_user1_load4_hour4 
 + 1 x_user1_load4_hour5 + 1 x_user1_load4_hour6 + 1 x_user1_load4_hour7 
 + 1 x_user1_load4_hour8 + 1 x_user1_load4_hour9 + 1 x_user1_load4_hour10 
 + 1 x_user1_load4_hour11  = 1.0
 load_load5_scheduled: + 1 x_user1_load5_hour0 + 1 x_user1_load5_hour1 
 + 1 x_user1_load5_hour2 + 1 x_user1_load5_hour3 + 1 x_user1_load5_hour4 
 + 1 x_user1_load5_hour5 + 1 x_user1_load5_hour6 + 1 x_user1_load5_hour7 
 + 1 x_user1_load5_hour8 + 1 x_user1_load5_hour9 + 1 x_user1_load5_hour10 
 + 1 x_user1_load5_hour11  = 1.0
 MaxLoadConnection_user1_0: + 3 x_user1_load0_hour0 + 2 x_user1_load1_hour0 
 + 3 x_user1_load2_hour0 + 2 x_user1_load3_hour0 + 1 x_user1_load4_hour0 
 + 3 x_user1_load5_hour0  <= 4.0
 MaxLoadConnection_user1_1: + 3 x_user1_load0_hour1 + 2 x_user1_load0_hour0 
 + 2 x_user1_load1_hour1 + 4 x_user1_load1_hour0 + 3 x_user1_load2_hour1 
 + 1 x_user1_load2_hour0 + 2 x_user1_load3_hour1 + 1 x_user1_load3_hour0 
 + 1 x_user1_load4_hour1 + 2 x_user1_load4_hour0 + 3 x_user1_load5_hour1 
 + 1 x_user1_load5_hour0  <= 4.0
 MaxLoadConnection_user1_2: + 3 x_user1_load0_hour2 + 2 x_user1_load0_hour1 
 + 1 x_user1_load0_hour0 + 2 x_user1_load1_hour2 + 4 x_user1_load1_hour1 
 + 1 x_user1_load1_hour0 + 3 x_user1_load2_hour2 + 1 x_user1_load2_hour1 
 + 4 x_user1_load2_hour0 + 2 x_user1_load3_hour2 + 1 x_user1_load3_hour1 
 + 1 x_user1_load3_hour0 + 1 x_user1_load4_hour2 + 2 x_user1_load4_hour1 
 + 3 x_user1_load5_hour2 + 1 x_user1_load5_hour1  <= 4.0
 MaxLoadConnection_user1_3: + 3 x_user1_load0_hour3 + 2 x_user1_load0_hour2 
 + 1 x_user1_load0_hour1 + 2 x_user1_load1_hour3 + 4 x_user1_load1_hour2 
 + 1 x_user1_load1_hour1 + 3 x_user1_load2_hour3 + 1 x_user1_load2_hour2 
 + 4 x_user1_load2_hour1 + 2 x_user1_load3_hour3 + 1 x_user1_load3_hour2 
 + 1 x_user1_load3_hour1 + 1 x_user1_load4_hour3 + 2 x_user1_load4_hour2 
 + 3 x_user1_load5_hour3 + 1 x_user1_load5_hour2  <= 4.0
 MaxLoadConnection_user1_4: + 3 x_user1_load0_hour4 + 2 x_user1_load0_hour3 
 + 1 x_user1_load0_hour2 + 2 x_user1_load1_hour4 + 4 x_user1_load1_hour3 
 + 1 x_user1_load1_hour2 + 3 x_user1_load2_hour4 + 1 x_user1_load2_hour3 
 + 4 x_user1_load2_hour2 + 2 x_user1_load3_hour4 + 1 x_user1_load3_hour3 
 + 1 x_user1_load3_hour2 + 1 x_user1_load4_hour4 + 2 x_user1_load4_hour3 
 + 3 x_user1_load5_hour4 + 1 x_user1_load5_hour3  <= 4.0
 MaxLoadConnection_user1_5: + 3 x_user1_load0_hour5 + 2 x_user1_load0_hour4 
 + 1 x_user1_load0_hour3 + 2 x_user1_load1_hour5 + 4 x_user1_load1_hour4 
 + 1 x_user1_load1_hour3 + 3 x_user1_load2_hour5 + 1 x_user1_load2_hour4 
 + 4 x_user1_load2_hour3 + 2 x_user1_load3_hour5 + 1 x_user1_load3_hour4 
 + 1 x_user1_load3_hour3 + 1 x_user1_load4_hour5 + 2 x_user1_load4_hour4 
 + 3 x_user1_load5_hour5 + 1 x_user1_load5_hour4  <= 4.0
 MaxLoadConnection_user1_6: + 3 x_user1_load0_hour6 + 2 x_user1_load0_hour5 
 + 1 x_user1_load0_hour4 + 2 x_user1_load1_hour6 + 4 x_user1_load1_hour5 
 + 1 x_user1_load1_hour4 + 3 x_user1_load2_hour6 + 1 x_user1_load2_hour5 
 + 4 x_user1_load2_hour4 + 2 x_user1_load3_hour6 + 1 x_user1_load3_hour5 
 + 1 x_user1_load3_hour4 + 1 x_user1_load4_hour6 + 2 x_user1_load4_hour5 
 + 3 x_user1_load5_hour6 + 1 x_user1_load5_hour5  <= 4.0
 MaxLoadConnection_user1_7: + 3 x_user1_load0_hour7 + 2 x_user1_load0_hour6 
 + 1 x_user1_load0_hour5 + 2 x_user1_load1_hour7 + 4 x_user1_load1_hour6 
 + 1 x_user1_load1_hour5 + 3 x_user1_load2_hour7 + 1 x_user1_load2_hour6 
 + 4 x_user1_load2_hour5 + 2 x_user1_load3_hour7 + 1 x_user1_load3_hour6 
 + 1 x_user1_load3_hour5 + 1 x_user1_load4_hour7 + 2 x_user1_load4_hour6 
 + 3 x_user1_load5_hour7 + 1 x_user1_load5_hour6  <= 4.0
 MaxLoadConnection_user1_8: + 3 x_user1_load0_hour8 + 2 x_user1_load0_hour7 
 + 1 x_user1_load0_hour6 + 2 x_user1_load1_hour8 + 4 x_user1_load1_hour7 
 + 1 x_user1_load1_hour6 + 3 x_user1_load2_hour8 + 1 x_user1_load2_hour7 
 + 4 x_user1_load2_hour6 + 2 x_user1_load3_hour8 + 1 x_user1_load3_hour7 
 + 1 x_user1_load3_hour6 + 1 x_user1_load4_hour8 + 2 x_user1_load4_hour7 
 + 3 x_user1_load5_hour8 + 1 x_user1_load5_hour7  <= 4.0
 MaxLoadConnection_user1_9: + 3 x_user1_load0_hour9 + 2 x_user1_load0_hour8 
 + 1 x_user1_load0_hour7 + 2 x_user1_load1_hour9 + 4 x_user1_load1_hour8 
 + 1 x_user1_load1_hour7 + 3 x_user1_load2_hour9 + 1 x_user1_load2_hour8 
 + 4 x_user1_load2_hour7 + 2 x_user1_load3_hour9 + 1 x_user1_load3_hour8 
 + 1 x_user1_load3_hour7 + 1 x_user1_load4_hour9 + 2 x_user1_load4_hour8 
 + 3 x_user1_load5_hour9 + 1 x_user1_load5_hour8  <= 4.0
 MaxLoadConnection_user1_10: + 3 x_user1_load0_hour10 + 2 x_user1_load0_hour9 
 + 1 x_user1_load0_hour8 + 2 x_user1_load1_hour10 + 4 x_user1_load1_hour9 
 + 1 x_user1_load1_hour8 + 3 x_user1_load2_hour10 + 1 x_user1_load2_hour9 
 + 4 x_user1_load2_hour8 + 2 x_user1_load3_hour10 + 1 x_user1_load3_hour9 
 + 1 x_user1_load3_hour8 + 1 x_user1_load4_hour10 + 2 x_user1_load4_hour9 
 + 3 x_user1_load5_hour10 + 1 x_user1_load5_hour9  <= 4.0
 MaxLoadConnection_user1_11: + 2 x_user1_load0_hour10 + 1 x_user1_load0_hour9 
 + 4 x_user1_load1_hour10 + 1 x_user1_load1_hour9 + 1 x_user1_load2_hour10 
 + 4 x_user1_load2_hour9 + 1 x_user1_load3_hour10 + 1 x_user1_load3_hour9 
 + 1 x_user1_load4_hour11 + 2 x_user1_load4_hour10 + 3 x_user1_load5_hour11 
 + 1 x_user1_load5_hour10  <= 4.0
 MaxLoadConnection_user1_12: + 1 x_user1_load0_hour10 + 1 x_user1_load1_hour10 
 + 4 x_user1_load2_hour10 + 1 x_user1_load3_hour10 + 2 x_user1_load4_hour11 
 + 1 x_user1_load5_hour11  <= 4.0

Bounds

Binary
 x_user1_load0_hour0 x_user1_load0_hour1 x_user1_load0_hour2
  x_user1_load0_hour3 x_user1_load0_hour4 x_user1_load0_hour5
  x_user1_load0_hour6 x_user1_load0_hour7 x_user1_load0_hour8
  x_user1_load0_hour9 x_user1_load0_hour10 x_user1_load1_hour0
  x_user1_load1_hour1 x_user1_load1_hour2 x_user1_load1_hour3
  x_user1_load1_hour4 x_user1_load1_hour5 x_user1_load1_hour6
  x_user1_load1_hour7 x_user1_load1_hour8 x_user1_load1_hour9
  x_user1_load1_hour10 x_user1_load2_hour0 x_user1_load2_hour1
  x_user1_load2_hour2 x_user1_load2_hour3 x_user1_load2_hour4
  x_user1_load2_hour5 x_user1_load2_hour6 x_user1_load2_hour7
  x_user1_load2_hour8 x_user1_load2_hour9 x_user1_load2_hour10
  x_user1_load3_hour0 x_user1_load3_hour1 x_user1_load3_hour2
  x_user1_load3_hour3 x_user1_load3_hour4 x_user1_load3_hour5
  x_user1_load3_hour6 x_user1_load3_hour7 x_user1_load3_hour8
  x_user1_load3_hour9 x_user1_load3_hour10 x_user1_load4_hour0
  x_user1_load4_hour1 x_user1_load4_hour2 x_user1_load4_hour3
  x_user1_load4_hour4 x_user1_load4_hour5 x_user1_load4_hour6
  x_user1_load4_hour7 x_user1_load4_hour8 x_user1_load4_hour9
  x_user1_load4_hour10 x_user1_load4_hour11 x_user1_load5_hour0
  x_user1_load5_hour1 x_user1_load5_hour2 x_user1_load5_hour3
  x_user1_load5_hour4 x_user1_load5_hour5 x_user1_load5_hour6
  x_user1_load5_hour7 x_user1_load5_hour8 x_user1_load5_hour9
  x_user1_load5_hour10 x_user1_load5_hour11
General

End